(set-logic LRA)
; --- Defining input variables ---
(declare-fun onnx__MatMul_0_0 () Real) 
(declare-fun onnx__MatMul_0_1 () Real) 
(declare-fun onnx__MatMul_0_2 () Real) 
(declare-fun onnx__MatMul_0_3 () Real) 
(declare-fun onnx__MatMul_0_4 () Real) 
(declare-fun onnx__MatMul_0_5 () Real) 
(declare-fun onnx__MatMul_0_6 () Real) 
(declare-fun onnx__MatMul_0_7 () Real) 
; --- INPUT BOUNDS --- 
(assert (>= onnx__MatMul_0_0 (- 0.021025)))
(assert (>= onnx__MatMul_0_0 (- 0.021025)))
(assert (>= onnx__MatMul_0_1 (- 1.043187)))
(assert (>= onnx__MatMul_0_1 (- 1.043187)))
(assert (>= onnx__MatMul_0_2 0.300265))
(assert (>= onnx__MatMul_0_2 0.300265))
(assert (>= onnx__MatMul_0_3 0.570702))
(assert (>= onnx__MatMul_0_3 0.570702))
(assert (>= onnx__MatMul_0_4 (- 1.124416)))
(assert (>= onnx__MatMul_0_4 (- 1.124416)))
(assert (>= onnx__MatMul_0_5 (- 1.794718)))
(assert (>= onnx__MatMul_0_5 (- 1.794718)))
(assert (>= onnx__MatMul_0_6 0.569139))
(assert (>= onnx__MatMul_0_6 0.569139))
(assert (>= onnx__MatMul_0_7 (- 0.361468)))
(assert (>= onnx__MatMul_0_7 (- 0.361468)))
; --- Translating networks computation --- 
; --- Node: /fc1/MatMul (Op-Type: MatMul) ---
(declare-fun _fc1_MatMul_output_0_0 () Real)
(assert (= _fc1_MatMul_output_0_0 (+ (+ (* 0.298401 onnx__MatMul_0_0) (* (- 0.170765) onnx__MatMul_0_1) (* (- 0.274465) onnx__MatMul_0_2) (* (- 0.083906) onnx__MatMul_0_3) (* (- 0.297085) onnx__MatMul_0_4) (* (- 0.077657) onnx__MatMul_0_5) (* (- 0.135193) onnx__MatMul_0_6) (* 0.009620 onnx__MatMul_0_7)) 0.000000)))
(declare-fun _fc1_MatMul_output_0_1 () Real)
(assert (= _fc1_MatMul_output_0_1 (+ (+ (* 1.230528 onnx__MatMul_0_0) (* 0.576013 onnx__MatMul_0_1) (* 0.155027 onnx__MatMul_0_2) (* (- 0.861319) onnx__MatMul_0_3) (* 0.710167 onnx__MatMul_0_4) (* (- 0.094297) onnx__MatMul_0_5) (* (- 0.461752) onnx__MatMul_0_6) (* 2.522396 onnx__MatMul_0_7)) 0.000000)))
(declare-fun _fc1_MatMul_output_0_2 () Real)
(assert (= _fc1_MatMul_output_0_2 (+ (+ (* (- 0.223662) onnx__MatMul_0_0) (* 0.157640 onnx__MatMul_0_1) (* (- 0.277250) onnx__MatMul_0_2) (* (- 0.332041) onnx__MatMul_0_3) (* (- 0.119962) onnx__MatMul_0_4) (* (- 0.004430) onnx__MatMul_0_5) (* 0.208340 onnx__MatMul_0_6) (* 0.107654 onnx__MatMul_0_7)) 0.000000)))
(declare-fun _fc1_MatMul_output_0_3 () Real)
(assert (= _fc1_MatMul_output_0_3 (+ (+ (* 0.108714 onnx__MatMul_0_0) (* (- 0.280222) onnx__MatMul_0_1) (* 0.048441 onnx__MatMul_0_2) (* (- 0.004711) onnx__MatMul_0_3) (* (- 0.144241) onnx__MatMul_0_4) (* 0.195717 onnx__MatMul_0_5) (* (- 0.097849) onnx__MatMul_0_6) (* (- 0.040117) onnx__MatMul_0_7)) 0.000000)))
; --- Node: /fc1/Add (Op-Type: Add) ---
(declare-fun _fc1_Add_output_0_0 () Real)
(assert (= _fc1_Add_output_0_0 (+ (- 0.302294) _fc1_MatMul_output_0_0)))
(declare-fun _fc1_Add_output_0_1 () Real)
(assert (= _fc1_Add_output_0_1 (+ 0.203366 _fc1_MatMul_output_0_1)))
(declare-fun _fc1_Add_output_0_2 () Real)
(assert (= _fc1_Add_output_0_2 (+ (- 0.136880) _fc1_MatMul_output_0_2)))
(declare-fun _fc1_Add_output_0_3 () Real)
(assert (= _fc1_Add_output_0_3 (+ (- 0.310783) _fc1_MatMul_output_0_3)))
; --- Node: /Relu (Op-Type: Relu) ---
(declare-fun _Relu_output_0_0 () Real)
(assert (= _Relu_output_0_0 (ite (> _fc1_Add_output_0_0 0.0) _fc1_Add_output_0_0 0.0)))
(declare-fun _Relu_output_0_1 () Real)
(assert (= _Relu_output_0_1 (ite (> _fc1_Add_output_0_1 0.0) _fc1_Add_output_0_1 0.0)))
(declare-fun _Relu_output_0_2 () Real)
(assert (= _Relu_output_0_2 (ite (> _fc1_Add_output_0_2 0.0) _fc1_Add_output_0_2 0.0)))
(declare-fun _Relu_output_0_3 () Real)
(assert (= _Relu_output_0_3 (ite (> _fc1_Add_output_0_3 0.0) _fc1_Add_output_0_3 0.0)))
; --- Node: /fc2/MatMul (Op-Type: MatMul) ---
(declare-fun _fc2_MatMul_output_0_0 () Real)
(assert (= _fc2_MatMul_output_0_0 (+ (+ (* 0.207848 _Relu_output_0_0) (* (- 2.105881) _Relu_output_0_1) (* 0.034236 _Relu_output_0_2) (* 0.128429 _Relu_output_0_3)) 0.000000)))
(declare-fun _fc2_MatMul_output_0_1 () Real)
(assert (= _fc2_MatMul_output_0_1 (+ (+ (* (- 0.465517) _Relu_output_0_0) (* 2.395455 _Relu_output_0_1) (* 0.487521 _Relu_output_0_2) (* 0.225442 _Relu_output_0_3)) 0.000000)))
; --- Node: /fc2/Add (Op-Type: Add) ---
(declare-fun v_11_0 () Real)
(assert (= v_11_0 (+ 1.040617 _fc2_MatMul_output_0_0)))
(declare-fun v_11_1 () Real)
(assert (= v_11_1 (+ (- 1.674182) _fc2_MatMul_output_0_1)))
; --- OUTPUT BOUNDS --- 
; --- ENCODING is done --- 
(check-sat)
(get-model)
